language ESSENCE' 1.0
$ Minion SolverNodes: 7101
$ Minion SolverTotalTime: 47.9681
$ Minion SolverTimeOut: 0
$ Savile Row TotalTime: 58.054
letting numberOfTurningPoints be 13
letting states be [[[0, 0, 1, 0, 0, 0, 0], 
[0, 0, 0, 0, 0, 0, 0], 
[0, 0, 0, 0, 0, 0, 0], 
[0, 0, 0, 1, 0, 0, 0], 
[0, 0, 0, 0, 0, 0, 0], 
[0, 0, 0, 0, 0, 0, 0], 
[0, 0, 0, 0, 0, 0, 0]], 
[[0, 0, 1, 1, 0, 0, 0], 
[0, 0, 0, 1, 0, 0, 0], 
[0, 0, 0, 1, 0, 0, 0], 
[0, 0, 0, 1, 0, 0, 0], 
[0, 0, 0, 0, 0, 0, 0], 
[0, 0, 0, 0, 0, 0, 0], 
[0, 0, 0, 0, 0, 0, 0]], 
[[0, 0, 1, 1, 1, 1, 1], 
[0, 0, 0, 1, 0, 0, 0], 
[0, 0, 0, 1, 0, 0, 0], 
[0, 0, 0, 1, 0, 0, 0], 
[0, 0, 0, 0, 0, 0, 0], 
[0, 0, 0, 0, 0, 0, 0], 
[0, 0, 0, 0, 0, 0, 0]], 
[[0, 0, 1, 1, 1, 1, 1], 
[0, 0, 0, 1, 0, 0, 1], 
[0, 0, 0, 1, 0, 0, 1], 
[0, 0, 0, 1, 0, 0, 1], 
[0, 0, 0, 0, 0, 0, 1], 
[0, 0, 0, 0, 0, 0, 1], 
[0, 0, 0, 0, 0, 0, 1]], 
[[0, 0, 1, 1, 1, 1, 1], 
[0, 0, 0, 1, 0, 0, 1], 
[0, 0, 0, 1, 0, 0, 1], 
[0, 0, 0, 1, 0, 0, 1], 
[0, 0, 0, 0, 0, 0, 1], 
[0, 0, 0, 0, 0, 0, 1], 
[1, 1, 1, 1, 1, 1, 1]], 
[[1, 0, 1, 1, 1, 1, 1], 
[1, 0, 0, 1, 0, 0, 1], 
[1, 0, 0, 1, 0, 0, 1], 
[1, 0, 0, 1, 0, 0, 1], 
[1, 0, 0, 0, 0, 0, 1], 
[1, 0, 0, 0, 0, 0, 1], 
[1, 1, 1, 1, 1, 1, 1]], 
[[1, 1, 1, 1, 1, 1, 1], 
[1, 0, 0, 1, 0, 0, 1], 
[1, 0, 0, 1, 0, 0, 1], 
[1, 0, 0, 1, 0, 0, 1], 
[1, 0, 0, 0, 0, 0, 1], 
[1, 0, 0, 0, 0, 0, 1], 
[1, 1, 1, 1, 1, 1, 1]], 
[[1, 1, 1, 1, 1, 1, 1], 
[1, 1, 0, 1, 0, 0, 1], 
[1, 1, 0, 1, 0, 0, 1], 
[1, 1, 0, 1, 0, 0, 1], 
[1, 1, 0, 0, 0, 0, 1], 
[1, 1, 0, 0, 0, 0, 1], 
[1, 1, 1, 1, 1, 1, 1]], 
[[1, 1, 1, 1, 1, 1, 1], 
[1, 1, 0, 1, 0, 0, 1], 
[1, 1, 0, 1, 0, 0, 1], 
[1, 1, 0, 1, 0, 0, 1], 
[1, 1, 0, 0, 0, 0, 1], 
[1, 1, 1, 1, 1, 1, 1], 
[1, 1, 1, 1, 1, 1, 1]], 
[[1, 1, 1, 1, 1, 1, 1], 
[1, 1, 0, 1, 0, 1, 1], 
[1, 1, 0, 1, 0, 1, 1], 
[1, 1, 0, 1, 0, 1, 1], 
[1, 1, 0, 0, 0, 1, 1], 
[1, 1, 1, 1, 1, 1, 1], 
[1, 1, 1, 1, 1, 1, 1]], 
[[1, 1, 1, 1, 1, 1, 1], 
[1, 1, 0, 1, 1, 1, 1], 
[1, 1, 0, 1, 0, 1, 1], 
[1, 1, 0, 1, 0, 1, 1], 
[1, 1, 0, 0, 0, 1, 1], 
[1, 1, 1, 1, 1, 1, 1], 
[1, 1, 1, 1, 1, 1, 1]], 
[[1, 1, 1, 1, 1, 1, 1], 
[1, 1, 0, 1, 1, 1, 1], 
[1, 1, 0, 1, 1, 1, 1], 
[1, 1, 0, 1, 1, 1, 1], 
[1, 1, 0, 0, 1, 1, 1], 
[1, 1, 1, 1, 1, 1, 1], 
[1, 1, 1, 1, 1, 1, 1]], 
[[1, 1, 1, 1, 1, 1, 1], 
[1, 1, 0, 1, 1, 1, 1], 
[1, 1, 0, 1, 1, 1, 1], 
[1, 1, 0, 1, 1, 1, 1], 
[1, 1, 1, 1, 1, 1, 1], 
[1, 1, 1, 1, 1, 1, 1], 
[1, 1, 1, 1, 1, 1, 1]], 
[[1, 1, 1, 1, 1, 1, 1], 
[1, 1, 1, 1, 1, 1, 1], 
[1, 1, 1, 1, 1, 1, 1], 
[1, 1, 1, 1, 1, 1, 1], 
[1, 1, 1, 1, 1, 1, 1], 
[1, 1, 1, 1, 1, 1, 1], 
[1, 1, 1, 1, 1, 1, 1]], 
[[1, 1, 1, 1, 1, 1, 1], 
[1, 1, 1, 1, 1, 1, 1], 
[1, 1, 1, 1, 1, 1, 1], 
[1, 1, 1, 1, 1, 1, 1], 
[1, 1, 1, 1, 1, 1, 1], 
[1, 1, 1, 1, 1, 1, 1], 
[1, 1, 1, 1, 1, 1, 1]], 
[[1, 1, 1, 1, 1, 1, 1], 
[1, 1, 1, 1, 1, 1, 1], 
[1, 1, 1, 1, 1, 1, 1], 
[1, 1, 1, 1, 1, 1, 1], 
[1, 1, 1, 1, 1, 1, 1], 
[1, 1, 1, 1, 1, 1, 1], 
[1, 1, 1, 1, 1, 1, 1]], 
[[1, 1, 1, 1, 1, 1, 1], 
[1, 1, 1, 1, 1, 1, 1], 
[1, 1, 1, 1, 1, 1, 1], 
[1, 1, 1, 1, 1, 1, 1], 
[1, 1, 1, 1, 1, 1, 1], 
[1, 1, 1, 1, 1, 1, 1], 
[1, 1, 1, 1, 1, 1, 1]], 
[[1, 1, 1, 1, 1, 1, 1], 
[1, 1, 1, 1, 1, 1, 1], 
[1, 1, 1, 1, 1, 1, 1], 
[1, 1, 1, 1, 1, 1, 1], 
[1, 1, 1, 1, 1, 1, 1], 
[1, 1, 1, 1, 1, 1, 1], 
[1, 1, 1, 1, 1, 1, 1]], 
[[1, 1, 1, 1, 1, 1, 1], 
[1, 1, 1, 1, 1, 1, 1], 
[1, 1, 1, 1, 1, 1, 1], 
[1, 1, 1, 1, 1, 1, 1], 
[1, 1, 1, 1, 1, 1, 1], 
[1, 1, 1, 1, 1, 1, 1], 
[1, 1, 1, 1, 1, 1, 1]], 
[[1, 1, 1, 1, 1, 1, 1], 
[1, 1, 1, 1, 1, 1, 1], 
[1, 1, 1, 1, 1, 1, 1], 
[1, 1, 1, 1, 1, 1, 1], 
[1, 1, 1, 1, 1, 1, 1], 
[1, 1, 1, 1, 1, 1, 1], 
[1, 1, 1, 1, 1, 1, 1]], 
[[1, 1, 1, 1, 1, 1, 1], 
[1, 1, 1, 1, 1, 1, 1], 
[1, 1, 1, 1, 1, 1, 1], 
[1, 1, 1, 1, 1, 1, 1], 
[1, 1, 1, 1, 1, 1, 1], 
[1, 1, 1, 1, 1, 1, 1], 
[1, 1, 1, 1, 1, 1, 1]], 
[[1, 1, 1, 1, 1, 1, 1], 
[1, 1, 1, 1, 1, 1, 1], 
[1, 1, 1, 1, 1, 1, 1], 
[1, 1, 1, 1, 1, 1, 1], 
[1, 1, 1, 1, 1, 1, 1], 
[1, 1, 1, 1, 1, 1, 1], 
[1, 1, 1, 1, 1, 1, 1]], 
[[1, 1, 1, 1, 1, 1, 1], 
[1, 1, 1, 1, 1, 1, 1], 
[1, 1, 1, 1, 1, 1, 1], 
[1, 1, 1, 1, 1, 1, 1], 
[1, 1, 1, 1, 1, 1, 1], 
[1, 1, 1, 1, 1, 1, 1], 
[1, 1, 1, 1, 1, 1, 1]], 
[[1, 1, 1, 1, 1, 1, 1], 
[1, 1, 1, 1, 1, 1, 1], 
[1, 1, 1, 1, 1, 1, 1], 
[1, 1, 1, 1, 1, 1, 1], 
[1, 1, 1, 1, 1, 1, 1], 
[1, 1, 1, 1, 1, 1, 1], 
[1, 1, 1, 1, 1, 1, 1]], 
[[1, 1, 1, 1, 1, 1, 1], 
[1, 1, 1, 1, 1, 1, 1], 
[1, 1, 1, 1, 1, 1, 1], 
[1, 1, 1, 1, 1, 1, 1], 
[1, 1, 1, 1, 1, 1, 1], 
[1, 1, 1, 1, 1, 1, 1], 
[1, 1, 1, 1, 1, 1, 1]], 
[[1, 1, 1, 1, 1, 1, 1], 
[1, 1, 1, 1, 1, 1, 1], 
[1, 1, 1, 1, 1, 1, 1], 
[1, 1, 1, 1, 1, 1, 1], 
[1, 1, 1, 1, 1, 1, 1], 
[1, 1, 1, 1, 1, 1, 1], 
[1, 1, 1, 1, 1, 1, 1]], 
[[1, 1, 1, 1, 1, 1, 1], 
[1, 1, 1, 1, 1, 1, 1], 
[1, 1, 1, 1, 1, 1, 1], 
[1, 1, 1, 1, 1, 1, 1], 
[1, 1, 1, 1, 1, 1, 1], 
[1, 1, 1, 1, 1, 1, 1], 
[1, 1, 1, 1, 1, 1, 1]], 
[[1, 1, 1, 1, 1, 1, 1], 
[1, 1, 1, 1, 1, 1, 1], 
[1, 1, 1, 1, 1, 1, 1], 
[1, 1, 1, 1, 1, 1, 1], 
[1, 1, 1, 1, 1, 1, 1], 
[1, 1, 1, 1, 1, 1, 1], 
[1, 1, 1, 1, 1, 1, 1]], 
[[1, 1, 1, 1, 1, 1, 1], 
[1, 1, 1, 1, 1, 1, 1], 
[1, 1, 1, 1, 1, 1, 1], 
[1, 1, 1, 1, 1, 1, 1], 
[1, 1, 1, 1, 1, 1, 1], 
[1, 1, 1, 1, 1, 1, 1], 
[1, 1, 1, 1, 1, 1, 1]], 
[[1, 1, 1, 1, 1, 1, 1], 
[1, 1, 1, 1, 1, 1, 1], 
[1, 1, 1, 1, 1, 1, 1], 
[1, 1, 1, 1, 1, 1, 1], 
[1, 1, 1, 1, 1, 1, 1], 
[1, 1, 1, 1, 1, 1, 1], 
[1, 1, 1, 1, 1, 1, 1]], 
[[1, 1, 1, 1, 1, 1, 1], 
[1, 1, 1, 1, 1, 1, 1], 
[1, 1, 1, 1, 1, 1, 1], 
[1, 1, 1, 1, 1, 1, 1], 
[1, 1, 1, 1, 1, 1, 1], 
[1, 1, 1, 1, 1, 1, 1], 
[1, 1, 1, 1, 1, 1, 1]], 
[[1, 1, 1, 1, 1, 1, 1], 
[1, 1, 1, 1, 1, 1, 1], 
[1, 1, 1, 1, 1, 1, 1], 
[1, 1, 1, 1, 1, 1, 1], 
[1, 1, 1, 1, 1, 1, 1], 
[1, 1, 1, 1, 1, 1, 1], 
[1, 1, 1, 1, 1, 1, 1]], 
[[1, 1, 1, 1, 1, 1, 1], 
[1, 1, 1, 1, 1, 1, 1], 
[1, 1, 1, 1, 1, 1, 1], 
[1, 1, 1, 1, 1, 1, 1], 
[1, 1, 1, 1, 1, 1, 1], 
[1, 1, 1, 1, 1, 1, 1], 
[1, 1, 1, 1, 1, 1, 1]], 
[[1, 1, 1, 1, 1, 1, 1], 
[1, 1, 1, 1, 1, 1, 1], 
[1, 1, 1, 1, 1, 1, 1], 
[1, 1, 1, 1, 1, 1, 1], 
[1, 1, 1, 1, 1, 1, 1], 
[1, 1, 1, 1, 1, 1, 1], 
[1, 1, 1, 1, 1, 1, 1]], 
[[1, 1, 1, 1, 1, 1, 1], 
[1, 1, 1, 1, 1, 1, 1], 
[1, 1, 1, 1, 1, 1, 1], 
[1, 1, 1, 1, 1, 1, 1], 
[1, 1, 1, 1, 1, 1, 1], 
[1, 1, 1, 1, 1, 1, 1], 
[1, 1, 1, 1, 1, 1, 1]], 
[[1, 1, 1, 1, 1, 1, 1], 
[1, 1, 1, 1, 1, 1, 1], 
[1, 1, 1, 1, 1, 1, 1], 
[1, 1, 1, 1, 1, 1, 1], 
[1, 1, 1, 1, 1, 1, 1], 
[1, 1, 1, 1, 1, 1, 1], 
[1, 1, 1, 1, 1, 1, 1]], 
[[1, 1, 1, 1, 1, 1, 1], 
[1, 1, 1, 1, 1, 1, 1], 
[1, 1, 1, 1, 1, 1, 1], 
[1, 1, 1, 1, 1, 1, 1], 
[1, 1, 1, 1, 1, 1, 1], 
[1, 1, 1, 1, 1, 1, 1], 
[1, 1, 1, 1, 1, 1, 1]], 
[[1, 1, 1, 1, 1, 1, 1], 
[1, 1, 1, 1, 1, 1, 1], 
[1, 1, 1, 1, 1, 1, 1], 
[1, 1, 1, 1, 1, 1, 1], 
[1, 1, 1, 1, 1, 1, 1], 
[1, 1, 1, 1, 1, 1, 1], 
[1, 1, 1, 1, 1, 1, 1]], 
[[1, 1, 1, 1, 1, 1, 1], 
[1, 1, 1, 1, 1, 1, 1], 
[1, 1, 1, 1, 1, 1, 1], 
[1, 1, 1, 1, 1, 1, 1], 
[1, 1, 1, 1, 1, 1, 1], 
[1, 1, 1, 1, 1, 1, 1], 
[1, 1, 1, 1, 1, 1, 1]], 
[[1, 1, 1, 1, 1, 1, 1], 
[1, 1, 1, 1, 1, 1, 1], 
[1, 1, 1, 1, 1, 1, 1], 
[1, 1, 1, 1, 1, 1, 1], 
[1, 1, 1, 1, 1, 1, 1], 
[1, 1, 1, 1, 1, 1, 1], 
[1, 1, 1, 1, 1, 1, 1]], 
[[1, 1, 1, 1, 1, 1, 1], 
[1, 1, 1, 1, 1, 1, 1], 
[1, 1, 1, 1, 1, 1, 1], 
[1, 1, 1, 1, 1, 1, 1], 
[1, 1, 1, 1, 1, 1, 1], 
[1, 1, 1, 1, 1, 1, 1], 
[1, 1, 1, 1, 1, 1, 1]], 
[[1, 1, 1, 1, 1, 1, 1], 
[1, 1, 1, 1, 1, 1, 1], 
[1, 1, 1, 1, 1, 1, 1], 
[1, 1, 1, 1, 1, 1, 1], 
[1, 1, 1, 1, 1, 1, 1], 
[1, 1, 1, 1, 1, 1, 1], 
[1, 1, 1, 1, 1, 1, 1]], 
[[1, 1, 1, 1, 1, 1, 1], 
[1, 1, 1, 1, 1, 1, 1], 
[1, 1, 1, 1, 1, 1, 1], 
[1, 1, 1, 1, 1, 1, 1], 
[1, 1, 1, 1, 1, 1, 1], 
[1, 1, 1, 1, 1, 1, 1], 
[1, 1, 1, 1, 1, 1, 1]], 
[[1, 1, 1, 1, 1, 1, 1], 
[1, 1, 1, 1, 1, 1, 1], 
[1, 1, 1, 1, 1, 1, 1], 
[1, 1, 1, 1, 1, 1, 1], 
[1, 1, 1, 1, 1, 1, 1], 
[1, 1, 1, 1, 1, 1, 1], 
[1, 1, 1, 1, 1, 1, 1]], 
[[1, 1, 1, 1, 1, 1, 1], 
[1, 1, 1, 1, 1, 1, 1], 
[1, 1, 1, 1, 1, 1, 1], 
[1, 1, 1, 1, 1, 1, 1], 
[1, 1, 1, 1, 1, 1, 1], 
[1, 1, 1, 1, 1, 1, 1], 
[1, 1, 1, 1, 1, 1, 1]], 
[[1, 1, 1, 1, 1, 1, 1], 
[1, 1, 1, 1, 1, 1, 1], 
[1, 1, 1, 1, 1, 1, 1], 
[1, 1, 1, 1, 1, 1, 1], 
[1, 1, 1, 1, 1, 1, 1], 
[1, 1, 1, 1, 1, 1, 1], 
[1, 1, 1, 1, 1, 1, 1]], 
[[1, 1, 1, 1, 1, 1, 1], 
[1, 1, 1, 1, 1, 1, 1], 
[1, 1, 1, 1, 1, 1, 1], 
[1, 1, 1, 1, 1, 1, 1], 
[1, 1, 1, 1, 1, 1, 1], 
[1, 1, 1, 1, 1, 1, 1], 
[1, 1, 1, 1, 1, 1, 1]], 
[[1, 1, 1, 1, 1, 1, 1], 
[1, 1, 1, 1, 1, 1, 1], 
[1, 1, 1, 1, 1, 1, 1], 
[1, 1, 1, 1, 1, 1, 1], 
[1, 1, 1, 1, 1, 1, 1], 
[1, 1, 1, 1, 1, 1, 1], 
[1, 1, 1, 1, 1, 1, 1]], 
[[1, 1, 1, 1, 1, 1, 1], 
[1, 1, 1, 1, 1, 1, 1], 
[1, 1, 1, 1, 1, 1, 1], 
[1, 1, 1, 1, 1, 1, 1], 
[1, 1, 1, 1, 1, 1, 1], 
[1, 1, 1, 1, 1, 1, 1], 
[1, 1, 1, 1, 1, 1, 1]];int(0..48)]
letting turningPoints be [[4, 4], 
[1, 4], 
[1, 7], 
[7, 7], 
[7, 1], 
[1, 1], 
[1, 2], 
[6, 2], 
[6, 6], 
[2, 6], 
[2, 5], 
[5, 5], 
[5, 3], 
[2, 3], 
[0, 0], 
[0, 0], 
[0, 0], 
[0, 0], 
[0, 0], 
[0, 0], 
[0, 0], 
[0, 0], 
[0, 0], 
[0, 0], 
[0, 0], 
[0, 0], 
[0, 0], 
[0, 0], 
[0, 0], 
[0, 0], 
[0, 0], 
[0, 0], 
[0, 0], 
[0, 0], 
[0, 0], 
[0, 0], 
[0, 0], 
[0, 0], 
[0, 0], 
[0, 0], 
[0, 0], 
[0, 0], 
[0, 0], 
[0, 0], 
[0, 0], 
[0, 0], 
[0, 0], 
[0, 0], 
[0, 0];int(0..48)]
